NAME: random75
TYPE: TSP
DIMENSION: 75
EDGE_WEIGHT_TYPE: EXPLICIT
EDGE_WEIGHT_FORMAT: FULL_MATRIX
EDGE_WEIGHT_SECTION
0 605 605 605 605 605 605 605 605 605 605 605 605 605 605 605 605 605 605 605 605 605 605 605 605 39 605 605 29 605 605 605 605 605 605 605 605 605 605 605 605 605 2 18 605 605 605 605 605 605 605 605 605 605 605 34 605 14 605 605 605 605 605 605 605 605 605 605 605 605 605 605 605 605 605
605 0 605 605 605 605 605 605 605 605 605 605 605 605 605 605 605 605 605 605 605 605 605 605 605 605 605 605 605 1 605 605 605 605 605 605 605 605 605 605 605 605 605 605 605 605 605 605 605 605 605 605 605 605 605 605 605 605 605 605 605 605 605 605 605 605 22 9 605 605 605 605 605 605 605
605 605 0 605 605 13 605 605 605 605 605 605 605 605 605 605 605 605 605 605 605 605 605 605 605 605 13 605 605 605 13 605 605 14 605 605 605 605 605 605 605 605 605 605 605 605 605 605 6 605 605 605 605 605 605 605 605 605 605 15 605 605 605 605 605 605 605 605 8 605 605 605 605 605 605
605 605 605 0 605 605 605 605 605 605 605 605 605 605 605 5 605 605 605 605 605 605 605 605 605 605 605 605 605 605 605 605 605 605 605 605 605 605 605 10 605 605 605 605 605 605 605 605 605 605 605 605 605 605 605 605 12 605 605 605 15 605 12 605 605 605 605 605 605 605 605 605 605 605 605
605 605 605 605 0 605 605 605 605 28 605 605 38 605 605 605 605 605 29 605 605 605 605 605 605 605 605 18 605 605 605 605 605 605 605 605 605 605 605 605 605 20 605 605 35 605 605 605 605 605 605 605 605 605 605 605 605 605 605 605 605 605 29 605 605 605 605 605 605 605 605 605 605 605 605
605 605 13 605 605 0 605 605 605 605 605 605 605 13 605 605 605 605 605 605 605 605 605 605 605 605 605 605 605 605 5 605 605 605 605 605 605 605 605 605 605 605 605 605 605 8 605 605 605 605 605 605 605 605 605 605 605 605 605 605 605 605 605 605 605 605 605 605 13 605 605 10 605 605 605
605 605 605 605 605 605 0 605 605 605 605 605 605 605 605 605 605 605 605 6 605 605 605 605 605 605 605 605 605 605 605 605 14 605 605 605 605 605 605 605 605 605 605 605 605 605 605 605 605 605 605 605 605 605 605 605 605 605 605 605 605 605 605 605 605 605 8 605 605 605 605 605 605 605 4
605 605 605 605 605 605 605 0 605 605 605 3 605 605 605 605 605 20 605 605 605 605 605 605 605 605 605 605 16 605 605 605 605 605 605 605 605 605 605 605 605 605 605 605 605 605 13 16 605 605 605 605 605 605 605 605 605 605 605 605 605 605 605 605 605 605 605 605 605 605 605 605 605 605 605
605 605 605 605 605 605 605 605 0 605 605 605 605 605 605 605 605 605 605 605 605 605 605 605 605 8 605 605 6 605 605 605 605 605 605 605 605 605 605 605 605 605 605 605 605 605 605 6 605 605 605 605 605 605 605 605 605 605 605 605 605 605 605 605 605 605 605 605 605 605 605 605 605 605 605
605 605 605 605 28 605 605 605 605 0 605 605 605 605 605 6 605 605 18 605 605 605 605 605 605 605 605 605 605 605 605 605 605 605 605 605 605 605 605 6 605 605 605 605 605 605 605 605 605 605 605 605 605 605 605 605 605 605 605 605 605 605 14 605 605 605 605 605 605 605 605 605 605 605 605
605 605 605 605 605 605 605 605 605 605 0 605 605 605 8 605 605 605 605 605 605 16 605 605 17 605 605 605 605 605 605 605 605 605 605 605 605 605 605 605 605 605 605 605 605 605 605 605 605 605 605 605 605 605 605 17 605 605 605 605 605 11 605 605 605 605 59 605 605 605 605 605 605 605 605
605 605 605 605 605 605 605 3 605 605 605 0 605 605 605 605 605 19 605 605 605 605 605 605 605 605 605 605 605 605 605 605 605 605 605 605 605 605 11 605 605 605 605 605 605 605 14 605 605 605 605 605 605 14 605 605 605 605 605 605 605 605 605 605 605 605 605 605 605 605 605 605 605 8 605
605 605 605 605 38 605 605 605 605 605 605 605 0 605 605 605 605 605 605 605 605 605 605 605 605 605 605 605 605 14 605 605 605 605 605 605 605 605 605 605 605 605 605 605 3 605 605 605 605 605 605 605 605 605 605 605 605 605 605 605 605 605 605 605 605 605 605 17 605 605 605 605 605 605 605
605 605 605 605 605 13 605 605 605 605 605 605 605 0 605 605 6 605 605 605 605 605 605 605 605 605 605 605 605 605 605 605 605 605 10 605 605 605 605 605 605 605 605 605 605 605 605 605 605 605 605 605 605 605 605 605 605 605 605 605 605 605 605 605 605 605 605 16 11 605 605 19 605 605 12
605 605 605 605 605 605 605 605 605 605 8 605 605 605 0 605 605 605 605 605 605 605 605 605 605 605 605 605 605 605 605 605 605 605 605 605 605 605 605 605 605 605 605 605 605 605 605 605 605 605 605 605 605 605 605 9 605 605 605 605 605 4 605 605 605 605 605 605 605 605 605 605 605 605 605
605 605 605 5 605 605 605 605 605 6 605 605 605 605 605 0 605 605 605 605 605 605 605 605 605 605 605 605 605 605 605 605 605 605 605 605 605 605 605 9 605 605 605 605 605 605 605 605 605 605 605 605 605 605 605 605 605 605 605 605 605 605 10 605 605 605 605 605 605 605 605 605 605 605 605
605 605 605 605 605 605 605 605 605 605 605 605 605 6 605 605 0 605 605 605 605 605 605 605 605 605 13 605 605 605 605 605 605 605 6 605 605 605 605 605 605 605 605 605 605 605 605 605 605 605 605 605 17 605 605 605 605 605 605 605 605 605 605 605 605 605 605 605 605 605 605 605 605 605 10
605 605 605 605 605 605 605 20 605 605 605 19 605 605 605 605 605 0 605 605 47 605 605 605 605 605 605 605 605 605 605 605 605 605 605 605 605 605 11 605 605 605 605 605 605 605 605 23 605 28 605 605 605 605 605 605 605 605 605 605 28 605 605 605 605 605 605 605 605 605 605 605 605 605 605
605 605 605 605 29 605 605 605 605 18 605 605 605 605 605 605 605 605 0 605 13 605 605 605 605 605 605 605 605 605 605 605 605 605 605 605 605 605 605 18 605 605 605 605 605 605 605 605 605 605 605 605 605 605 605 605 605 605 605 605 605 605 605 605 605 605 605 605 605 605 605 605 605 605 605
605 605 605 605 605 605 6 605 605 605 605 605 605 605 605 605 605 605 605 0 605 605 605 605 605 605 605 605 605 605 605 605 605 605 605 605 605 605 605 605 605 605 605 605 605 605 605 605 605 605 605 605 605 605 605 605 605 605 605 605 605 605 605 605 605 605 3 16 605 605 605 605 605 605 9
605 605 605 605 605 605 605 605 605 605 605 605 605 605 605 605 605 47 13 605 0 605 605 605 605 605 605 605 605 605 605 605 605 605 605 605 605 605 605 12 605 605 605 605 605 605 605 605 605 605 605 605 605 605 605 605 605 605 605 605 19 605 605 605 605 605 605 605 605 605 605 605 605 605 605
605 605 605 605 605 605 605 605 605 605 16 605 605 605 605 605 605 605 605 605 605 0 605 605 11 605 605 605 605 605 605 605 605 605 605 605 605 18 605 605 605 605 605 605 605 605 605 605 605 605 605 605 605 605 605 605 605 605 5 605 605 19 605 605 18 605 605 605 605 605 605 605 605 605 605
605 605 605 605 605 605 605 605 605 605 605 605 605 605 605 605 605 605 605 605 605 605 0 605 11 605 605 605 605 605 605 605 605 605 605 605 605 605 605 605 605 605 605 605 605 605 605 605 605 605 605 605 10 605 605 605 605 605 605 605 605 605 605 605 605 605 605 605 605 4 4 605 605 605 605
605 605 605 605 605 605 605 605 605 605 605 605 605 605 605 605 605 605 605 605 605 605 605 0 605 605 605 605 16 605 605 605 605 605 605 605 605 605 605 605 605 605 605 3 605 605 8 605 605 605 605 605 605 605 605 605 605 605 605 605 605 605 605 605 605 605 605 605 605 605 605 605 605 605 605
605 605 605 605 605 605 605 605 605 605 17 605 605 605 605 605 605 605 605 605 605 11 11 605 0 605 605 605 605 605 605 605 605 605 605 605 605 605 605 605 605 605 605 605 605 605 605 605 605 605 605 605 605 605 605 605 605 605 12 605 605 605 605 605 605 605 42 605 605 11 12 605 605 605 605
39 605 605 605 605 605 605 605 8 605 605 605 605 605 605 605 605 605 605 605 605 605 605 605 605 0 605 605 14 605 605 605 605 605 605 605 605 605 605 605 605 605 605 605 605 605 605 10 605 605 605 605 605 605 6 73 605 605 605 605 605 605 605 605 605 605 605 605 605 605 605 605 605 605 605
605 605 13 605 605 605 605 605 605 605 605 605 605 605 605 605 13 605 605 605 605 605 605 605 605 605 0 605 605 605 605 605 605 2 10 605 605 605 605 605 605 605 605 605 605 605 605 605 605 605 605 605 10 605 605 605 605 605 605 605 605 605 605 605 605 605 605 605 10 605 605 605 605 605 605
605 605 605 605 18 605 605 605 605 605 605 605 605 605 605 605 605 605 605 605 605 605 605 605 605 605 605 0 605 605 605 6 605 605 605 605 605 605 605 605 605 7 605 605 605 605 605 605 605 605 605 605 605 605 605 605 605 605 605 605 605 605 21 605 605 605 605 605 605 605 605 605 605 605 605
29 605 605 605 605 605 605 16 6 605 605 605 605 605 605 605 605 605 605 605 605 605 605 16 605 14 605 605 0 605 605 605 605 605 605 605 605 605 605 605 605 605 605 18 605 605 17 11 605 605 605 605 605 605 605 605 605 605 605 605 605 605 605 605 605 605 605 605 605 605 605 605 605 605 605
605 1 605 605 605 605 605 605 605 605 605 605 14 605 605 605 605 605 605 605 605 605 605 605 605 605 605 605 605 0 605 605 605 605 605 605 605 605 605 605 605 605 605 605 605 605 605 605 605 605 605 605 605 605 605 605 605 605 605 605 605 605 605 605 605 605 605 10 605 605 605 605 605 605 605
605 605 13 605 605 5 605 605 605 605 605 605 605 605 605 605 605 605 605 605 605 605 605 605 605 605 605 605 605 605 0 605 605 605 605 605 605 605 605 605 605 605 605 605 605 4 605 605 605 605 605 605 605 605 605 605 605 605 605 5 605 605 605 605 605 605 605 605 605 605 605 605 605 605 605
605 605 605 605 605 605 605 605 605 605 605 605 605 605 605 605 605 605 605 605 605 605 605 605 605 605 605 6 605 605 605 0 605 605 605 605 605 605 605 605 605 8 605 605 605 10 605 605 605 605 605 605 605 605 605 605 605 605 605 11 605 605 21 605 605 605 605 605 605 605 605 11 605 605 605
605 605 605 605 605 605 14 605 605 605 605 605 605 605 605 605 605 605 605 605 605 605 605 605 605 605 605 605 605 605 605 605 0 605 605 605 605 605 605 605 605 605 605 605 605 605 605 605 605 605 605 605 6 605 605 605 605 605 605 605 605 605 605 605 605 605 21 605 605 11 605 605 605 605 15
605 605 14 605 605 605 605 605 605 605 605 605 605 605 605 605 605 605 605 605 605 605 605 605 605 605 2 605 605 605 605 605 605 0 605 605 605 605 605 605 605 605 605 605 605 605 605 605 15 605 605 22 10 605 605 605 605 605 19 605 605 605 605 605 605 605 605 605 605 605 13 605 605 605 605
605 605 605 605 605 605 605 605 605 605 605 605 605 10 605 605 6 605 605 605 605 605 605 605 605 605 10 605 605 605 605 605 605 605 0 605 605 605 605 605 605 605 605 605 605 605 605 605 605 605 605 605 605 605 605 605 605 605 605 605 605 605 605 605 605 605 605 605 2 605 605 605 605 605 605
605 605 605 605 605 605 605 605 605 605 605 605 605 605 605 605 605 605 605 605 605 605 605 605 605 605 605 605 605 605 605 605 605 605 605 0 6 605 605 605 605 605 605 605 605 605 605 605 605 605 6 605 605 22 605 605 25 605 605 17 605 605 24 605 605 605 605 605 605 605 605 605 605 605 605
605 605 605 605 605 605 605 605 605 605 605 605 605 605 605 605 605 605 605 605 605 605 605 605 605 605 605 605 605 605 605 605 605 605 605 6 0 605 605 605 18 605 605 605 605 605 21 605 605 605 10 19 605 21 605 605 605 605 605 605 605 605 605 605 605 605 605 605 605 605 605 605 605 605 605
605 605 605 605 605 605 605 605 605 605 605 605 605 605 605 605 605 605 605 605 605 18 605 605 605 605 605 605 605 605 605 605 605 605 605 605 605 0 605 605 605 605 605 605 605 605 605 605 605 605 605 605 605 605 605 16 605 8 605 605 605 13 605 605 10 605 605 605 605 605 605 605 605 605 605
605 605 605 605 605 605 605 605 605 605 605 11 605 605 605 605 605 11 605 605 605 605 605 605 605 605 605 605 605 605 605 605 605 605 605 605 605 605 0 605 605 605 605 605 605 605 605 605 605 605 605 605 605 605 605 605 18 605 605 605 24 605 605 12 605 605 605 605 605 605 605 605 605 8 605
605 605 605 10 605 605 605 605 605 6 605 605 605 605 605 9 605 605 18 605 12 605 605 605 605 605 605 605 605 605 605 605 605 605 605 605 605 605 605 0 605 605 605 605 605 605 605 605 605 605 605 605 605 605 605 605 605 605 605 605 16 605 605 605 605 605 605 605 605 605 605 605 605 605 605
605 605 605 605 605 605 605 605 605 605 605 605 605 605 605 605 605 605 605 605 605 605 605 605 605 605 605 605 605 605 605 605 605 605 605 605 18 605 605 605 0 605 20 18 605 605 23 605 605 605 605 7 605 605 605 605 605 605 605 605 605 605 605 605 605 605 605 605 605 605 605 605 16 605 605
605 605 605 605 20 605 605 605 605 605 605 605 605 605 605 605 605 605 605 605 605 605 605 605 605 605 605 7 605 605 605 8 605 605 605 605 605 605 605 605 605 0 605 605 25 605 605 605 605 605 605 605 605 605 605 605 605 605 605 605 605 605 605 605 605 6 605 605 605 605 605 8 605 605 605
2 605 605 605 605 605 605 605 605 605 605 605 605 605 605 605 605 605 605 605 605 605 605 605 605 605 605 605 605 605 605 605 605 605 605 605 605 605 605 605 20 605 0 18 605 605 605 605 605 605 605 605 605 605 605 605 605 13 605 605 605 605 605 605 605 605 605 605 605 605 605 605 16 605 605
18 605 605 605 605 605 605 605 605 605 605 605 605 605 605 605 605 605 605 605 605 605 605 3 605 605 605 605 18 605 605 605 605 605 605 605 605 605 605 605 18 605 18 0 605 605 10 605 605 605 605 605 605 605 605 605 605 605 605 605 605 605 605 605 605 605 605 605 605 605 605 605 605 605 605
605 605 605 605 35 605 605 605 605 605 605 605 3 605 605 605 605 605 605 605 605 605 605 605 605 605 605 605 605 605 605 605 605 605 605 605 605 605 605 605 605 25 605 605 0 605 605 605 605 605 605 605 605 605 605 605 605 605 605 605 605 605 605 605 605 22 605 17 605 605 605 605 605 605 605
605 605 605 605 605 8 605 605 605 605 605 605 605 605 605 605 605 605 605 605 605 605 605 605 605 605 605 605 605 605 4 10 605 605 605 605 605 605 605 605 605 605 605 605 605 0 605 605 605 605 605 605 605 605 605 605 605 605 605 3 605 605 605 605 605 605 605 605 605 605 605 11 605 605 605
605 605 605 605 605 605 605 13 605 605 605 14 605 605 605 605 605 605 605 605 605 605 605 8 605 605 605 605 17 605 605 605 605 605 605 605 21 605 605 605 23 605 605 10 605 605 0 605 605 605 605 605 605 19 605 605 605 605 605 605 605 605 605 605 605 605 605 605 605 605 605 605 605 605 605
605 605 605 605 605 605 605 16 6 605 605 605 605 605 605 605 605 23 605 605 605 605 605 605 605 10 605 605 11 605 605 605 605 605 605 605 605 605 605 605 605 605 605 605 605 605 605 0 605 12 605 605 605 605 11 605 605 605 605 605 605 605 605 605 605 605 605 605 605 605 605 605 605 605 605
605 605 6 605 605 605 605 605 605 605 605 605 605 605 605 605 605 605 605 605 605 605 605 605 605 605 605 605 605 605 605 605 605 15 605 605 605 605 605 605 605 605 605 605 605 605 605 605 0 605 12 16 605 605 605 605 605 605 605 17 605 605 605 605 605 605 605 605 605 605 605 605 605 605 605
605 605 605 605 605 605 605 605 605 605 605 605 605 605 605 605 605 28 605 605 605 605 605 605 605 605 605 605 605 605 605 605 605 605 605 605 605 605 605 605 605 605 605 605 605 605 605 12 605 0 605 605 605 605 2 605 605 605 605 605 605 605 605 605 605 605 605 605 605 605 605 605 605 605 605
605 605 605 605 605 605 605 605 605 605 605 605 605 605 605 605 605 605 605 605 605 605 605 605 605 605 605 605 605 605 605 605 605 605 605 6 10 605 605 605 605 605 605 605 605 605 605 605 12 605 0 20 605 605 605 605 605 605 605 13 605 605 605 605 605 605 605 605 605 605 605 605 605 605 605
605 605 605 605 605 605 605 605 605 605 605 605 605 605 605 605 605 605 605 605 605 605 605 605 605 605 605 605 605 605 605 605 605 22 605 605 19 605 605 605 7 605 605 605 605 605 605 605 16 605 20 0 605 605 605 605 605 605 22 605 605 605 605 605 16 605 605 605 605 605 605 605 16 605 605
605 605 605 605 605 605 605 605 605 605 605 605 605 605 605 605 17 605 605 605 605 605 10 605 605 605 10 605 605 605 605 605 6 10 605 605 605 605 605 605 605 605 605 605 605 605 605 605 605 605 605 605 0 605 605 605 605 605 605 605 605 605 605 605 605 605 605 605 605 11 12 605 605 605 17
605 605 605 605 605 605 605 605 605 605 605 14 605 605 605 605 605 605 605 605 605 605 605 605 605 605 605 605 605 605 605 605 605 605 605 22 21 605 605 605 605 605 605 605 605 605 19 605 605 605 605 605 605 0 605 605 9 605 605 605 605 605 605 3 605 605 605 605 605 605 605 605 605 8 605
605 605 605 605 605 605 605 605 605 605 605 605 605 605 605 605 605 605 605 605 605 605 605 605 605 6 605 605 605 605 605 605 605 605 605 605 605 605 605 605 605 605 605 605 605 605 605 11 605 2 605 605 605 605 0 78 605 605 605 605 605 605 605 605 605 605 605 605 605 605 605 605 605 605 605
34 605 605 605 605 605 605 605 605 605 17 605 605 605 9 605 605 605 605 605 605 605 605 605 605 73 605 605 605 605 605 605 605 605 605 605 605 16 605 605 605 605 605 605 605 605 605 605 605 605 605 605 605 605 78 0 605 21 605 605 605 8 605 605 605 605 605 605 605 605 605 605 605 605 605
605 605 605 12 605 605 605 605 605 605 605 605 605 605 605 605 605 605 605 605 605 605 605 605 605 605 605 605 605 605 605 605 605 605 605 25 605 605 18 605 605 605 605 605 605 605 605 605 605 605 605 605 605 9 605 605 0 605 605 605 19 605 17 9 605 605 605 605 605 605 605 605 605 605 605
14 605 605 605 605 605 605 605 605 605 605 605 605 605 605 605 605 605 605 605 605 605 605 605 605 605 605 605 605 605 605 605 605 605 605 605 605 8 605 605 605 605 13 605 605 605 605 605 605 605 605 605 605 605 605 21 605 0 605 605 605 605 605 605 11 605 605 605 605 605 605 605 10 605 605
605 605 605 605 605 605 605 605 605 605 605 605 605 605 605 605 605 605 605 605 605 5 605 605 12 605 605 605 605 605 605 605 605 19 605 605 605 605 605 605 605 605 605 605 605 605 605 605 605 605 605 22 605 605 605 605 605 605 0 605 605 605 605 605 17 605 605 605 605 605 9 605 605 605 605
605 605 15 605 605 605 605 605 605 605 605 605 605 605 605 605 605 605 605 605 605 605 605 605 605 605 605 605 605 605 5 11 605 605 605 17 605 605 605 605 605 605 605 605 605 3 605 605 17 605 13 605 605 605 605 605 605 605 605 0 605 605 25 605 605 605 605 605 605 605 605 605 605 605 605
605 605 605 15 605 605 605 605 605 605 605 605 605 605 605 605 605 28 605 605 19 605 605 605 605 605 605 605 605 605 605 605 605 605 605 605 605 605 24 16 605 605 605 605 605 605 605 605 605 605 605 605 605 605 605 605 19 605 605 605 0 605 605 605 605 605 605 605 605 605 605 605 605 605 605
605 605 605 605 605 605 605 605 605 605 11 605 605 605 4 605 605 605 605 605 605 19 605 605 605 605 605 605 605 605 605 605 605 605 605 605 605 13 605 605 605 605 605 605 605 605 605 605 605 605 605 605 605 605 605 8 605 605 605 605 605 0 605 605 605 605 605 605 605 605 605 605 605 605 605
605 605 605 12 29 605 605 605 605 14 605 605 605 605 605 10 605 605 605 605 605 605 605 605 605 605 605 21 605 605 605 21 605 605 605 24 605 605 605 605 605 605 605 605 605 605 605 605 605 605 605 605 605 605 605 605 17 605 605 25 605 605 0 605 605 605 605 605 605 605 605 605 605 605 605
605 605 605 605 605 605 605 605 605 605 605 605 605 605 605 605 605 605 605 605 605 605 605 605 605 605 605 605 605 605 605 605 605 605 605 605 605 605 12 605 605 605 605 605 605 605 605 605 605 605 605 605 605 3 605 605 9 605 605 605 605 605 605 0 605 605 605 605 605 605 605 605 605 6 605
605 605 605 605 605 605 605 605 605 605 605 605 605 605 605 605 605 605 605 605 605 18 605 605 605 605 605 605 605 605 605 605 605 605 605 605 605 10 605 605 605 605 605 605 605 605 605 605 605 605 605 16 605 605 605 605 605 11 17 605 605 605 605 605 0 605 605 605 605 605 605 605 2 605 605
605 605 605 605 605 605 605 605 605 605 605 605 605 605 605 605 605 605 605 605 605 605 605 605 605 605 605 605 605 605 605 605 605 605 605 605 605 605 605 605 605 6 605 605 22 605 605 605 605 605 605 605 605 605 605 605 605 605 605 605 605 605 605 605 605 0 605 26 605 605 605 3 605 605 605
605 22 605 605 605 605 8 605 605 605 59 605 605 605 605 605 605 605 605 3 605 605 605 605 42 605 605 605 605 605 605 605 21 605 605 605 605 605 605 605 605 605 605 605 605 605 605 605 605 605 605 605 605 605 605 605 605 605 605 605 605 605 605 605 605 605 0 18 605 32 605 605 605 605 605
605 9 605 605 605 605 605 605 605 605 605 605 17 16 605 605 605 605 605 16 605 605 605 605 605 605 605 605 605 10 605 605 605 605 605 605 605 605 605 605 605 605 605 605 17 605 605 605 605 605 605 605 605 605 605 605 605 605 605 605 605 605 605 605 605 26 18 0 605 605 605 26 605 605 18
605 605 8 605 605 13 605 605 605 605 605 605 605 11 605 605 605 605 605 605 605 605 605 605 605 605 10 605 605 605 605 605 605 605 2 605 605 605 605 605 605 605 605 605 605 605 605 605 605 605 605 605 605 605 605 605 605 605 605 605 605 605 605 605 605 605 605 605 0 605 605 605 605 605 605
605 605 605 605 605 605 605 605 605 605 605 605 605 605 605 605 605 605 605 605 605 605 4 605 11 605 605 605 605 605 605 605 11 605 605 605 605 605 605 605 605 605 605 605 605 605 605 605 605 605 605 605 11 605 605 605 605 605 605 605 605 605 605 605 605 605 32 605 605 0 605 605 605 605 605
605 605 605 605 605 605 605 605 605 605 605 605 605 605 605 605 605 605 605 605 605 605 4 605 12 605 605 605 605 605 605 605 605 13 605 605 605 605 605 605 605 605 605 605 605 605 605 605 605 605 605 605 12 605 605 605 605 605 9 605 605 605 605 605 605 605 605 605 605 605 0 605 605 605 605
605 605 605 605 605 10 605 605 605 605 605 605 605 19 605 605 605 605 605 605 605 605 605 605 605 605 605 605 605 605 605 11 605 605 605 605 605 605 605 605 605 8 605 605 605 11 605 605 605 605 605 605 605 605 605 605 605 605 605 605 605 605 605 605 605 3 605 26 605 605 605 0 605 605 605
605 605 605 605 605 605 605 605 605 605 605 605 605 605 605 605 605 605 605 605 605 605 605 605 605 605 605 605 605 605 605 605 605 605 605 605 605 605 605 605 16 605 16 605 605 605 605 605 605 605 605 16 605 605 605 605 605 10 605 605 605 605 605 605 2 605 605 605 605 605 605 605 0 605 605
605 605 605 605 605 605 605 605 605 605 605 8 605 605 605 605 605 605 605 605 605 605 605 605 605 605 605 605 605 605 605 605 605 605 605 605 605 605 8 605 605 605 605 605 605 605 605 605 605 605 605 605 605 8 605 605 605 605 605 605 605 605 605 6 605 605 605 605 605 605 605 605 605 0 605
605 605 605 605 605 605 4 605 605 605 605 605 605 12 605 605 10 605 605 9 605 605 605 605 605 605 605 605 605 605 605 605 15 605 605 605 605 605 605 605 605 605 605 605 605 605 605 605 605 605 605 605 17 605 605 605 605 605 605 605 605 605 605 605 605 605 605 18 605 605 605 605 605 605 0
EOF
